29860.3 0
176 57 66 27 92 159 0 103 62 192 5 48 198 74 109 191 18 118 89 148 117 9 136 83 128 71 145 111 46 139 126 90 97 22 114 44 184 31 100 152 14 16 10 20 73 58 123 131 35 160 125 98 106 181 177 108 37 23 17 115 78 165 52 143 15 87 162 150 93 21 69 147 183 110 151 186 25 195 65 64 3 196 180 96 144 132 55 199 173 156 135 113 91 7 168 41 79 30 88 172 102 158 140 188 53 120 39 63 1 169 43 122 72 49 190 194 193 175 81 94 12 75 32 36 142 4 104 77 51 155 95 185 38 149 67 84 161 182 171 29 170 137 138 127 47 187 99 70 40 157 197 13 2 133 189 42 124 116 45 28 33 121 107 54 82 174 153 86 105 8 6 56 19 11 26 85 34 141 154 119 163 61 59 178 112 76 166 146 130 164 179 50 60 24 80 101 134 68 167 129 
